StringID Type x y demand ReadyTime DueDate ServiceTime
D0 d 40 50 0 0 3390 0
Dt d 40 50 0 0 3390 0
S0 f 40 50 0 0 3390 0
S1 f 73 52 0 0 3390 0
S2 f 90 55 0 0 3390 0
S3 f 55 79 0 0 3390 0
S4 f 69 89 0 0 3390 0
S5 f 32 80 0 0 3390 0
S6 f 39 96 0 0 3390 0
S7 f 23 80 0 0 3390 0
S8 f 4 83 0 0 3390 0
S9 f 18 58 0 0 3390 0
S10 f 1 56 0 0 3390 0
S11 f 13 31 0 0 3390 0
S12 f -5 38 0 0 3390 0
S13 f 26 37 0 0 3390 0
S14 f 28 13 0 0 3390 0
S15 f 39 31 0 0 3390 0
S16 f 48 11 0 0 3390 0
S17 f 59 17 0 0 3390 0
S18 f 73 23 0 0 3390 0
S19 f 74 32 0 0 3390 0
S20 f 90 44 0 0 3390 0
C1 c3 52 75 10 0 3272 90
C2 c2 45 70 30 0 3279 90
C3 c2 62 69 10 0 3270 90
C4 c1 60 66 10 0 3274 90
C5 c1 42 65 10 0 3284 90
C6 c2 16 42 20 2544 2704 90
C7 c2 58 70 20 0 3273 90
C8 c3 34 60 20 12 172 90
C9 c1 28 70 10 0 3276 90
C10 c3 35 66 10 28 188 90
C11 c3 35 69 10 0 3280 90
C12 c3 25 85 20 0 3261 90
C13 c1 22 75 30 0 3269 90
C14 c1 22 85 10 601 761 90
C15 c1 20 80 40 411 571 90
C16 c3 20 85 40 693 853 90
C17 c3 18 75 20 0 3266 90
C18 c3 15 75 20 885 1045 90
C19 c3 15 80 10 0 3260 90
C20 c1 30 50 10 0 3290 90
C21 c3 30 56 20 3128 3288 90
C22 c1 28 52 20 0 3287 90
C23 c2 14 66 10 0 3269 90
C24 c3 25 50 10 0 3285 90
C25 c1 22 66 40 0 3275 90
C26 c3 8 62 10 0 3265 90
C27 c2 23 52 10 2832 2992 90
C28 c1 4 55 20 0 3263 90
C29 c1 20 50 10 2642 2802 90
C30 c2 20 55 10 0 3279 90
C31 c2 10 35 20 2260 2420 90
C32 c1 10 40 30 2447 2607 90
C33 c1 8 40 40 0 3266 90
C34 c1 8 45 20 0 3267 90
C35 c1 5 35 10 0 3261 90
C36 c1 5 45 10 0 3264 90
C37 c1 2 40 20 0 3260 90
C38 c2 0 40 30 1977 2137 90
C39 c3 0 45 20 1882 2042 90
C40 c1 36 18 10 968 1128 90
C41 c3 35 32 10 0 3281 90
C42 c1 33 32 20 0 3280 90
C43 c1 33 35 10 0 3283 90
C44 c1 32 20 10 0 3268 90
C45 c2 30 30 10 0 3277 90
C46 c3 34 25 30 0 3274 90
C47 c1 30 35 10 0 3281 90
C48 c3 36 40 10 0 3289 90
C49 c2 48 20 10 0 3268 90
C50 c2 26 32 10 0 3277 90
C51 c1 25 30 10 0 3275 90
C52 c3 25 35 10 402 562 90
C53 c3 44 5 20 0 3254 90
C54 c3 42 10 40 0 3259 90
C55 c2 42 15 10 0 3264 90
C56 c2 40 5 30 0 3255 90
C57 c2 38 15 40 0 3264 90
C58 c3 38 5 30 0 3254 90
C59 c2 38 10 10 0 3259 90
C60 c1 35 5 20 0 3254 90
C61 c2 50 30 10 0 3277 90
C62 c2 50 35 20 0 3281 90
C63 c1 50 40 50 0 3285 90
C64 c2 48 30 10 0 3278 90
C65 c1 44 25 10 0 3274 90
C66 c3 47 35 10 0 3283 90
C67 c3 47 40 10 0 3287 90
C68 c2 42 30 10 0 3279 90
C69 c3 45 35 10 0 3284 90
C70 c3 95 30 30 0 3241 90
C71 c2 95 35 20 0 3242 90
C72 c3 53 30 10 2432 2592 90
C73 c2 92 30 10 0 3244 90
C74 c2 53 35 50 0 3280 90
C75 c1 45 65 20 0 3284 90
C76 c1 90 35 10 0 3247 90
C77 c1 72 45 10 0 3267 90
C78 c2 78 40 20 0 3260 90
C79 c3 87 30 10 1322 1482 90
C80 c2 85 25 10 1227 1387 90
C81 c1 85 35 30 1417 1577 90
C82 c2 75 55 20 508 668 90
C83 c2 72 55 10 415 575 90
C84 c2 70 58 20 0 3268 90
C85 c3 86 46 30 0 3253 90
C86 c1 66 55 10 226 386 90
C87 c1 64 46 20 0 3275 90
C88 c2 65 60 30 0 3273 90
C89 c3 56 64 10 0 3278 90
C90 c3 60 55 10 0 3279 90
C91 c1 60 60 10 0 3277 90
C92 c1 67 85 20 603 763 90
C93 c2 42 58 40 0 3291 90
C94 c1 65 82 10 0 3259 90
C95 c3 62 80 30 0 3262 90
C96 c3 62 40 10 1808 1968 90
C97 c2 60 85 30 0 3259 90
C98 c2 58 75 20 0 3269 90
C99 c1 55 80 10 0 3266 90
C100 c2 55 85 20 0 3261 90
P0 p 84 46 0 0 3390 45
P1 p 39 69 0 0 3390 45
P2 p 62 19 0 0 3390 45
P3 p 37 80 0 0 3390 45
P4 p 3 33 0 0 3390 45
0 1 0 0 0
0 1 0 0 0
0 1 0 0 0
0 0 0 0 0
0 0 0 0 0
0 0 0 0 1
0 1 0 0 0
0 1 0 0 0
0 0 0 0 0
0 1 0 0 0
0 1 0 0 0
0 0 0 1 0
0 0 0 0 0
0 0 0 0 0
0 0 0 0 0
0 0 0 1 0
0 0 0 1 0
0 0 0 1 0
0 0 0 1 0
0 0 0 0 0
0 1 0 0 0
0 0 0 0 0
0 1 0 0 0
0 1 0 0 0
0 0 0 0 0
0 0 0 0 1
0 1 0 0 0
0 0 0 0 0
0 0 0 0 0
0 1 0 0 0
0 0 0 0 1
0 0 0 0 0
0 0 0 0 0
0 0 0 0 0
0 0 0 0 0
0 0 0 0 0
0 0 0 0 0
0 0 0 0 1
0 0 0 0 1
0 0 0 0 0
0 0 1 0 0
0 0 0 0 0
0 0 0 0 0
0 0 0 0 0
0 0 0 0 1
0 0 1 0 0
0 0 0 0 0
0 1 0 0 0
0 0 1 0 0
0 0 0 0 1
0 0 0 0 0
0 0 0 0 1
0 0 1 0 0
0 0 1 0 0
0 0 1 0 0
0 0 1 0 0
0 0 1 0 0
0 0 1 0 0
0 0 1 0 0
0 0 0 0 0
0 0 1 0 0
0 0 1 0 0
0 0 0 0 0
0 0 1 0 0
0 0 0 0 0
0 0 1 0 0
0 0 1 0 0
0 0 1 0 0
0 0 1 0 0
1 0 0 0 0
1 0 0 0 0
0 0 1 0 0
1 0 0 0 0
0 0 1 0 0
0 0 0 0 0
0 0 0 0 0
0 0 0 0 0
1 0 0 0 0
1 0 0 0 0
1 0 0 0 0
0 0 0 0 0
1 0 0 0 0
1 0 0 0 0
1 0 0 0 0
1 0 0 0 0
0 0 0 0 0
0 0 0 0 0
1 0 0 0 0
0 1 0 0 0
0 1 0 0 0
0 0 0 0 0
0 0 0 0 0
0 1 0 0 0
0 0 0 0 0
0 0 0 1 0
0 0 1 0 0
0 0 0 1 0
0 1 0 0 0
0 0 0 0 0
0 0 0 1 0
param Q := 118.12
param CV := 700
param r := 1
param g := 2.29
param V := 1
